N = 8;
H = 6;
T = 2;

avail = array3d(1..N, 1..H, 1..T, [5, 7, 2, 9, 3, 1, 4, 5, 10, 10, 1, 10, 6, 0, 7, 8, 6, 8, 0, 2, 3, 3, 9, 9, 5, 5, 9, 2, 7, 5, 0, 10, 10, 8, 2, 0, 1, 4, 7, 8, 0, 0, 7, 0, 2, 7, 4, 6, 4, 2, 9, 8, 1, 6, 8, 4, 2, 5, 1, 1, 1, 0, 4, 6, 5, 7, 4, 6, 7, 3, 1, 9, 0, 4, 10, 10, 7, 10, 8, 0, 10, 8, 2, 5, 2, 5, 2, 3, 8, 6, 1, 4, 6, 2, 5, 1]);

r = array2d(1..H, 1..T, [3, 0, 2, 1, 2, 1, 1, 2, 1, 1, 1, 2]);
